NAME : att48.tsp
COMMENT : Optimal tour for att48.tsp
TYPE : TOUR
DIMENSION : 48
Total Length: 34034.21362304264
TOUR_SECTION
1
22
16
41
29
2
26
4
35
45
10
24
42
5
48
39
32
21
47
20
12
11
23
13
25
14
34
3
40
15
33
46
36
30
43
17
27
19
37
6
28
7
18
44
31
38
9
8
-1
EOF
